
Gurobi 8.1.1 (win64) logging started 11/28/19 16:01:22

Changed value of parameter LogFile to logs/drand/rlt/drand-10-075-1.log
   Prev: gurobi.log  Default: 
Changed value of parameter LogToConsole to 0
   Prev: 1  Min: 0  Max: 1  Default: 1
Changed value of parameter TimeLimit to 3600.0
   Prev: 1e+100  Min: 0.0  Max: 1e+100  Default: 1e+100
Optimize a model with 178030 rows, 59685 columns and 418486 nonzeros
Variable types: 0 continuous, 59685 integer (345 binary)
Coefficient statistics:
  Matrix range     [1e+00, 1e+00]
  Objective range  [1e+00, 1e+00]
  Bounds range     [1e+00, 1e+00]
  RHS range        [1e+00, 1e+00]
Presolve time: 2.15s
Presolved: 178030 rows, 59685 columns, 418486 nonzeros
Variable types: 0 continuous, 59685 integer (59685 binary)
Found heuristic solution: objective 11.0000000
Found heuristic solution: objective 9.0000000

Root simplex log...

Iteration    Objective       Primal Inf.    Dual Inf.      Time
    3518    1.0000098e+00   1.350000e+01   0.000000e+00      5s
    4348    1.2500074e+00   1.024167e+01   0.000000e+00     10s
    5358    1.2595491e+00   1.923648e+02   0.000000e+00     16s
    7797    1.2610166e+00   0.000000e+00   0.000000e+00     18s

Root relaxation: objective 1.261017e+00, 7797 iterations, 15.63 seconds
Total elapsed time = 20.26s

    Nodes    |    Current Node    |     Objective Bounds      |     Work
 Expl Unexpl |  Obj  Depth IntInf | Incumbent    BestBd   Gap | It/Node Time

     0     0    1.26102    0 3181    9.00000    1.26102  86.0%     -   26s
     0     0    1.50589    0 2107    9.00000    1.50589  83.3%     -   49s
H    0     0                       7.0000000    1.50589  78.5%     -   74s
     0     0    1.64558    0 2428    7.00000    1.64558  76.5%     -   90s
     0     0    1.64600    0 2334    7.00000    1.64600  76.5%     -  103s
     0     0    1.69516    0 1971    7.00000    1.69516  75.8%     -  110s
     0     0    1.69516    0 1979    7.00000    1.69516  75.8%     -  154s
     0     0    1.70190    0 2145    7.00000    1.70190  75.7%     -  159s
     0     0    1.70840    0 2261    7.00000    1.70840  75.6%     -  180s
     0     0    1.70854    0 2208    7.00000    1.70854  75.6%     -  197s
     0     0    1.71400    0 2137    7.00000    1.71400  75.5%     -  207s
     0     0    1.71406    0 2132    7.00000    1.71406  75.5%     -  227s
     0     0    1.72121    0 2049    7.00000    1.72121  75.4%     -  239s
     0     0    1.72122    0 2052    7.00000    1.72122  75.4%     -  242s
     0     0    1.72658    0 2504    7.00000    1.72658  75.3%     -  254s
     0     0    1.72674    0 2532    7.00000    1.72674  75.3%     -  282s
     0     0    1.73171    0 2449    7.00000    1.73171  75.3%     -  299s
     0     0    1.73173    0 2520    7.00000    1.73173  75.3%     -  304s
     0     0    1.73726    0 2094    7.00000    1.73726  75.2%     -  322s
     0     0    1.74167    0 2049    7.00000    1.74167  75.1%     -  374s
     0     0    1.74170    0 2085    7.00000    1.74170  75.1%     -  409s
     0     0    1.74526    0 2563    7.00000    1.74526  75.1%     -  430s
     0     0    1.74534    0 2233    7.00000    1.74534  75.1%     -  472s
     0     0    1.74845    0 2365    7.00000    1.74845  75.0%     -  496s
     0     0    1.75154    0 2266    7.00000    1.75154  75.0%     -  559s
     0     0    1.75442    0 2274    7.00000    1.75442  74.9%     -  593s
     0     0    1.75444    0 2274    7.00000    1.75444  74.9%     -  642s
     0     0    1.75679    0 2220    7.00000    1.75679  74.9%     -  668s
     0     0    1.75680    0 2220    7.00000    1.75680  74.9%     -  682s
     0     0    1.75911    0 2311    7.00000    1.75911  74.9%     -  710s
     0     0    1.75913    0 2212    7.00000    1.75913  74.9%     -  779s
     0     0    1.76171    0 2227    7.00000    1.76171  74.8%     -  808s
     0     0    1.76173    0 2212    7.00000    1.76173  74.8%     -  830s
     0     0    1.76332    0 2494    7.00000    1.76332  74.8%     -  857s
     0     0    1.76439    0 2543    7.00000    1.76439  74.8%     -  940s
     0     0    1.76444    0 2541    7.00000    1.76444  74.8%     -  981s
     0     0    1.76569    0 1998    7.00000    1.76569  74.8%     - 1007s
     0     0    1.76576    0 2160    7.00000    1.76576  74.8%     - 1020s
     0     0    1.76723    0 2252    7.00000    1.76723  74.8%     - 1053s
     0     0    1.76730    0 2181    7.00000    1.76730  74.8%     - 1120s
     0     0    1.76861    0 2304    7.00000    1.76861  74.7%     - 1151s
     0     0    1.76867    0 2294    7.00000    1.76867  74.7%     - 1181s
     0     0    1.76953    0 2267    7.00000    1.76953  74.7%     - 1209s
     0     0    1.76953    0 2267    7.00000    1.76953  74.7%     - 1210s
     0     0    1.76953    0 2267    7.00000    1.76953  74.7%     - 3600s

Cutting planes:
  Gomory: 4
  Zero half: 185

Explored 1 nodes (150722 simplex iterations) in 3600.34 seconds
Thread count was 4 (of 4 available processors)

Solution count 3: 7 9 11 

Time limit reached
Best objective 7.000000000000e+00, best bound 2.000000000000e+00, gap 71.4286%
